c FILE                  :graph40.gr
c No. of vertices       :40
c No. of edges          :43
c Max. weight           :1
c Min. weight           :1
c Min. edge             :1
c Max. edge             :3
p sp 40 43
a 1 13 1
a 2 3 1
a 2 37 1
a 2 39 1
a 4 27 1
a 4 35 1
a 4 6 1
a 5 10 1
a 5 29 1
a 6 33 1
a 7 25 1
a 8 22 1
a 8 26 1
a 9 17 1
a 9 12 1
a 9 24 1
a 10 18 1
a 11 19 1
a 11 28 1
a 14 34 1
a 15 32 1
a 15 31 1
a 15 16 1
a 17 21 1
a 17 38 1
a 19 23 1
a 19 36 1
a 20 40 1
a 20 30 1
a 22 31 1
a 22 7 1
a 23 13 1
a 23 26 1
a 25 39 1
a 26 3 1
a 28 34 1
a 28 14 1
a 29 30 1
a 29 21 1
a 35 33 1
a 38 24 1
a 40 37 1
a 40 16 1
